\ Model diet
\ LP format - for model browsing. Use MPS format to capture full model detail.
Minimize
  9.9 buy[papaya_con_platano] + 17.4 buy[Quesadillas_con_chorizo]
   + 7.5 buy[ensalada_verde_con_pera] + 21.39 buy[lomo_al_horno]
   + 7.47 buy[Huevo_con_espinacas]
   + 16.59 buy[Hamburguesas_de_pollo_y_calabaza]
   + 13.31 buy[Champiñones_salteados] + 8.61 buy[mango_con_papaya]
   + 7.09 buy[Huevo_a_la_mexicana] + 7.82 buy[Huevo_con_pimiento_morron]
   + 3.25 buy[cocktail_de_frutas] + 18.3 buy[atun_a_la_vizcaina]
   + 22.05 buy[huevos_estrellados_con_tocino]
   + 13.82 buy[Huevo_con_champiñones] + 16.92 buy[Huevo_con_huitlacoche]
   + 8.94 buy[Arroz_rojo] + 21.8 buy[Sincronizadas]
   + 6.75 buy[cocktail_kiwi,_platano,_pera_y_guayaba]
   + 28.16 buy[Quesadillas_con_huitlacoche] + 7.7 buy[Huevo_con_papas]
   + 26.61 buy[Quesadillas_con_flor_de_calabaza]
   + 15.67 buy[Pierna_adobada] + 12.87 buy[croquetas_de_papa]
   + 26.26 buy[Albondigas_en_chipotle]
   + 15.37 buy[Huevo_con_flor_de_calabaza]
   + 25.06 buy[Quesadillas_con_champiñones] + 6.37 buy[Huevo_con_chorizo]
   + 22.44 buy[tinga_de_res] + 7.85 buy[Guacamole]
   + 10.6 buy[Ensalada_verde_con_garbanzos] + 15.08 buy[Quesadillas]
   + 3.85 buy[pico_de_gallo] + 10.52 buy[Huevo_con_jamon]
   + 11.69 buy[Espinacas_con_tocino_ahumado] + 6.45 buy[Huevo_con_nopales]
Subject To
 colesterol: 50.6 buy[Quesadillas_con_chorizo]
   + 4.8 buy[ensalada_verde_con_pera] + 95 buy[lomo_al_horno]
   + 530 buy[Huevo_con_espinacas]
   + 170.6 buy[Hamburguesas_de_pollo_y_calabaza]
   + 530 buy[Huevo_a_la_mexicana] + 530 buy[Huevo_con_pimiento_morron]
   + 28 buy[atun_a_la_vizcaina] + 596 buy[huevos_estrellados_con_tocino]
   + 530 buy[Huevo_con_champiñones] + 530 buy[Huevo_con_huitlacoche]
   + 32.2 buy[Sincronizadas] + 15 buy[Quesadillas_con_huitlacoche]
   + 530 buy[Huevo_con_papas] + 15 buy[Quesadillas_con_flor_de_calabaza]
   + 120 buy[Pierna_adobada] + 33.8125 buy[croquetas_de_papa]
   + 162.2614285714286 buy[Albondigas_en_chipotle]
   + 530 buy[Huevo_con_flor_de_calabaza]
   + 15 buy[Quesadillas_con_champiñones] + 565.6 buy[Huevo_con_chorizo]
   + 116.25 buy[tinga_de_res] + 15 buy[Quesadillas]
   + 547.2 buy[Huevo_con_jamon]
   + 17.83571428571429 buy[Espinacas_con_tocino_ahumado]
   + 530 buy[Huevo_con_nopales] + Rgcolesterol = 300
 riboflavina: 0.07115 buy[papaya_con_platano]
   + 0.554 buy[Quesadillas_con_chorizo]
   + 0.22708 buy[ensalada_verde_con_pera] + 0.372290625 buy[lomo_al_horno]
   + 0.73585 buy[Huevo_con_espinacas]
   + 0.4227875 buy[Hamburguesas_de_pollo_y_calabaza]
   + 0.4344666666666666 buy[Champiñones_salteados]
   + 0.07992 buy[mango_con_papaya] + 0.66345 buy[Huevo_a_la_mexicana]
   + 0.65735 buy[Huevo_con_pimiento_morron]
   + 0.0575 buy[cocktail_de_frutas] + 0.084525 buy[atun_a_la_vizcaina]
   + 0.7935 buy[huevos_estrellados_con_tocino]
   + 0.96335 buy[Huevo_con_champiñones]
   + 0.66335 buy[Huevo_con_huitlacoche]
   + 0.1219833333333333 buy[Arroz_rojo] + 0.67 buy[Sincronizadas]
   + 0.0674 buy[cocktail_kiwi,_platano,_pera_y_guayaba]
   + 0.51185 buy[Quesadillas_con_huitlacoche]
   + 0.67785 buy[Huevo_con_papas]
   + 0.54385 buy[Quesadillas_con_flor_de_calabaza]
   + 0.7928035714285714 buy[Pierna_adobada]
   + 0.392875 buy[croquetas_de_papa]
   + 0.3567428571428571 buy[Albondigas_en_chipotle]
   + 0.69535 buy[Huevo_con_flor_de_calabaza]
   + 0.81185 buy[Quesadillas_con_champiñones]
   + 0.7055 buy[Huevo_con_chorizo] + 0.470125 buy[tinga_de_res]
   + 0.1185 buy[Guacamole] + 0.142475 buy[Ensalada_verde_con_garbanzos]
   + 0.486 buy[Quesadillas] + 0.0266 buy[pico_de_gallo]
   + 0.73585 buy[Huevo_con_jamon]
   + 0.3555928571428571 buy[Espinacas_con_tocino_ahumado]
   + 0.6643 buy[Huevo_con_nopales] >= 1.7
 vitamina_a_rae: 90.15 buy[papaya_con_platano]
   + 48.8 buy[Quesadillas_con_chorizo]
   + 214.42 buy[ensalada_verde_con_pera] + 1.5875 buy[lomo_al_horno]
   + 407.7875 buy[Huevo_con_espinacas]
   + 74.47125 buy[Hamburguesas_de_pollo_y_calabaza]
   + 12.96666666666667 buy[Champiñones_salteados]
   + 74.52 buy[mango_con_papaya] + 229.3625 buy[Huevo_a_la_mexicana]
   + 221.6375 buy[Huevo_con_pimiento_morron] + 67.1 buy[cocktail_de_frutas]
   + 59.18583333333334 buy[atun_a_la_vizcaina]
   + 217.85 buy[huevos_estrellados_con_tocino]
   + 220.975 buy[Huevo_con_champiñones]
   + 220.975 buy[Huevo_con_huitlacoche] + 136.6666666666667 buy[Arroz_rojo]
   + 48 buy[Sincronizadas]
   + 36.58 buy[cocktail_kiwi,_platano,_pera_y_guayaba]
   + 58.525 buy[Quesadillas_con_huitlacoche]
   + 211.2875 buy[Huevo_con_papas]
   + 145.525 buy[Quesadillas_con_flor_de_calabaza]
   + 20.37 buy[Pierna_adobada] + 241.2 buy[croquetas_de_papa]
   + 46.25535714285714 buy[Albondigas_en_chipotle]
   + 307.975 buy[Huevo_con_flor_de_calabaza]
   + 58.525 buy[Quesadillas_con_champiñones]
   + 211.25 buy[Huevo_con_chorizo] + 14.5 buy[tinga_de_res]
   + 60.78 buy[Guacamole] + 108.4659375 buy[Ensalada_verde_con_garbanzos]
   + 48.8 buy[Quesadillas] + 18.2 buy[pico_de_gallo]
   + 211.2875 buy[Huevo_con_jamon]
   + 680.7378571428573 buy[Espinacas_con_tocino_ahumado]
   + 225.3125 buy[Huevo_con_nopales] >= 1000
 magnesio: 34.445 buy[papaya_con_platano]
   + 39.848 buy[ensalada_verde_con_pera]
   + 40.02968749999999 buy[lomo_al_horno]
   + 48.363125 buy[Huevo_con_espinacas]
   + 61.08375 buy[Hamburguesas_de_pollo_y_calabaza]
   + 20.3175 buy[Champiñones_salteados] + 9.056 buy[mango_con_papaya]
   + 24.125625 buy[Huevo_a_la_mexicana]
   + 20.238125 buy[Huevo_con_pimiento_morron]
   + 18.15 buy[cocktail_de_frutas]
   + 46.34583333333333 buy[atun_a_la_vizcaina]
   + 32.3 buy[huevos_estrellados_con_tocino]
   + 27.738125 buy[Huevo_con_champiñones]
   + 41.998125 buy[Huevo_con_huitlacoche] + 22.6375 buy[Arroz_rojo]
   + 15.2 buy[Sincronizadas]
   + 24.96 buy[cocktail_kiwi,_platano,_pera_y_guayaba]
   + 29.498125 buy[Quesadillas_con_huitlacoche]
   + 41.238125 buy[Huevo_con_papas]
   + 28.238125 buy[Quesadillas_con_flor_de_calabaza]
   + 44.35357142857143 buy[Pierna_adobada] + 70.35 buy[croquetas_de_papa]
   + 45.02714285714284 buy[Albondigas_en_chipotle]
   + 40.738125 buy[Huevo_con_flor_de_calabaza]
   + 15.238125 buy[Quesadillas_con_champiñones]
   + 12.5 buy[Huevo_con_chorizo] + 40.1375 buy[tinga_de_res]
   + 12.955 buy[Guacamole] + 81.14625 buy[Ensalada_verde_con_garbanzos]
   + 11.89375 buy[pico_de_gallo] + 22.138125 buy[Huevo_con_jamon]
   + 119.2746428571429 buy[Espinacas_con_tocino_ahumado]
   + 41.378125 buy[Huevo_con_nopales] >= 350
 fosforo: 99.09 buy[papaya_con_platano]
   + 101.2 buy[Quesadillas_con_chorizo]
   + 24.206 buy[ensalada_verde_con_pera] + 382.134375 buy[lomo_al_horno]
   + 248.5325 buy[Huevo_con_espinacas]
   + 338.2087500000001 buy[Hamburguesas_de_pollo_y_calabaza]
   + 137.0433333333334 buy[Champiñones_salteados]
   + 71.872 buy[mango_con_papaya] + 247.4575 buy[Huevo_a_la_mexicana]
   + 232.2825 buy[Huevo_con_pimiento_morron]
   + 24.65 buy[cocktail_de_frutas] + 199.89 buy[atun_a_la_vizcaina]
   + 534.8 buy[huevos_estrellados_con_tocino]
   + 317.7825 buy[Huevo_con_champiñones]
   + 264.9825 buy[Huevo_con_huitlacoche]
   + 112.3666666666667 buy[Arroz_rojo] + 122.8 buy[Sincronizadas]
   + 58.05 buy[cocktail_kiwi,_platano,_pera_y_guayaba]
   + 99.1825 buy[Quesadillas_con_huitlacoche]
   + 270.0825 buy[Huevo_con_papas]
   + 98.9825 buy[Quesadillas_con_flor_de_calabaza]
   + 363.1628571428572 buy[Pierna_adobada]
   + 233.4025 buy[croquetas_de_papa]
   + 347.3060714285714 buy[Albondigas_en_chipotle]
   + 264.7825 buy[Huevo_con_flor_de_calabaza]
   + 151.9825 buy[Quesadillas_con_champiñones] + 267 buy[Huevo_con_chorizo]
   + 247.55 buy[tinga_de_res] + 53.56 buy[Guacamole]
   + 226.6903125 buy[Ensalada_verde_con_garbanzos] + 49.2 buy[Quesadillas]
   + 32.775 buy[pico_de_gallo] + 297.3825 buy[Huevo_con_jamon]
   + 162.7321428571429 buy[Espinacas_con_tocino_ahumado]
   + 228.45 buy[Huevo_con_nopales] >= 800
 carbohidratos: 51.6285 buy[papaya_con_platano]
   + 21.4 buy[Quesadillas_con_chorizo]
   + 3.59922 buy[ensalada_verde_con_pera] + 7.671859375 buy[lomo_al_horno]
   + 6.238275 buy[Huevo_con_espinacas]
   + 10.9530375 buy[Hamburguesas_de_pollo_y_calabaza]
   + 12.2627 buy[Champiñones_salteados] + 37.6778 buy[mango_con_papaya]
   + 8.345025 buy[Huevo_a_la_mexicana]
   + 7.114525 buy[Huevo_con_pimiento_morron]
   + 19.724 buy[cocktail_de_frutas]
   + 13.60058333333334 buy[atun_a_la_vizcaina]
   + 2.258 buy[huevos_estrellados_con_tocino]
   + 10.597025 buy[Huevo_con_champiñones]
   + 50.307025 buy[Huevo_con_huitlacoche]
   + 22.05766666666667 buy[Arroz_rojo] + 23.752 buy[Sincronizadas]
   + 28.748 buy[cocktail_kiwi,_platano,_pera_y_guayaba]
   + 69.867025 buy[Quesadillas_con_huitlacoche]
   + 18.728025 buy[Huevo_con_papas]
   + 28.16702500000001 buy[Quesadillas_con_flor_de_calabaza]
   + 6.918 buy[Pierna_adobada] + 34.08132500000001 buy[croquetas_de_papa]
   + 10.45530357142857 buy[Albondigas_en_chipotle]
   + 8.607025 buy[Huevo_con_flor_de_calabaza]
   + 30.157025 buy[Quesadillas_con_champiñones]
   + 1.84 buy[Huevo_con_chorizo] + 8.715 buy[tinga_de_res]
   + 10.685 buy[Guacamole] + 28.318440625 buy[Ensalada_verde_con_garbanzos]
   + 20.96 buy[Quesadillas] + 7.86175 buy[pico_de_gallo]
   + 4.311525 buy[Huevo_con_jamon]
   + 6.178292857142857 buy[Espinacas_con_tocino_ahumado]
   + 4.261575 buy[Huevo_con_nopales] >= 0
 agua: 147.198 buy[papaya_con_platano] + 92.56 buy[Quesadillas_con_chorizo]
   + 62.65042 buy[ensalada_verde_con_pera]
   + 168.344390625 buy[lomo_al_horno] + 151.06565 buy[Huevo_con_espinacas]
   + 144.9086625 buy[Hamburguesas_de_pollo_y_calabaza]
   + 160.0142 buy[Champiñones_salteados] + 151.9184 buy[mango_con_papaya]
   + 193.21015 buy[Huevo_a_la_mexicana]
   + 156.6084 buy[Huevo_con_pimiento_morron]
   + 162.973 buy[cocktail_de_frutas]
   + 202.4823916666666 buy[atun_a_la_vizcaina]
   + 100.667 buy[huevos_estrellados_con_tocino]
   + 213.28565 buy[Huevo_con_champiñones]
   + 212.20565 buy[Huevo_con_huitlacoche]
   + 247.8281666666667 buy[Arroz_rojo] + 91.708 buy[Sincronizadas]
   + 153.439 buy[cocktail_kiwi,_platano,_pera_y_guayaba]
   + 189.05065 buy[Quesadillas_con_huitlacoche]
   + 181.3969 buy[Huevo_con_papas]
   + 194.25065 buy[Quesadillas_con_flor_de_calabaza]
   + 169.118 buy[Pierna_adobada] + 251.47415 buy[croquetas_de_papa]
   + 169.3662678571428 buy[Albondigas_en_chipotle]
   + 217.40565 buy[Huevo_con_flor_de_calabaza]
   + 190.13065 buy[Quesadillas_con_champiñones]
   + 115.715 buy[Huevo_con_chorizo] + 173.295 buy[tinga_de_res]
   + 126.673 buy[Guacamole]
   + 112.035971875 buy[Ensalada_verde_con_garbanzos]
   + 70.12 buy[Quesadillas] + 111.25075 buy[pico_de_gallo]
   + 143.8869 buy[Huevo_con_jamon]
   + 129.5969142857143 buy[Espinacas_con_tocino_ahumado]
   + 151.474525 buy[Huevo_con_nopales] >= 0
 hierro: 0.5677 buy[papaya_con_platano] + 2.22 buy[Quesadillas_con_chorizo]
   + 2.30782 buy[ensalada_verde_con_pera] + 1.94696875 buy[lomo_al_horno]
   + 2.99593125 buy[Huevo_con_espinacas]
   + 2.2157875 buy[Hamburguesas_de_pollo_y_calabaza]
   + 2.979575 buy[Champiñones_salteados] + 0.79416 buy[mango_con_papaya]
   + 2.17118125 buy[Huevo_a_la_mexicana]
   + 1.82918125 buy[Huevo_con_pimiento_morron]
   + 0.496 buy[cocktail_de_frutas]
   + 3.022508333333333 buy[atun_a_la_vizcaina]
   + 2.353 buy[huevos_estrellados_con_tocino]
   + 3.72218125 buy[Huevo_con_champiñones]
   + 2.26718125 buy[Huevo_con_huitlacoche]
   + 2.125208333333334 buy[Arroz_rojo] + 2.348 buy[Sincronizadas]
   + 0.635 buy[cocktail_kiwi,_platano,_pera_y_guayaba]
   + 1.35968125 buy[Quesadillas_con_huitlacoche]
   + 6.781681249999999 buy[Huevo_con_papas]
   + 1.95468125 buy[Quesadillas_con_flor_de_calabaza]
   + 2.518235714285714 buy[Pierna_adobada] + 10.9677 buy[croquetas_de_papa]
   + 5.193557142857142 buy[Albondigas_en_chipotle]
   + 2.86218125 buy[Huevo_con_flor_de_calabaza]
   + 2.814681250000001 buy[Quesadillas_con_champiñones]
   + 3.129 buy[Huevo_con_chorizo] + 3.65025 buy[tinga_de_res]
   + 1.23025 buy[Guacamole] + 3.473825 buy[Ensalada_verde_con_garbanzos]
   + 0.58 buy[Quesadillas] + 0.6148125000000001 buy[pico_de_gallo]
   + 2.13418125 buy[Huevo_con_jamon]
   + 4.890910714285714 buy[Espinacas_con_tocino_ahumado]
   + 1.93503125 buy[Huevo_con_nopales] >= 15
 grasa_total: 2.6775 buy[papaya_con_platano]
   + 33.52 buy[Quesadillas_con_chorizo]
   + 7.85492 buy[ensalada_verde_con_pera] + 13.466859375 buy[lomo_al_horno]
   + 20.92065 buy[Huevo_con_espinacas]
   + 16.97935 buy[Hamburguesas_de_pollo_y_calabaza]
   + 10.76586666666667 buy[Champiñones_salteados]
   + 2.117 buy[mango_con_papaya] + 20.93115 buy[Huevo_a_la_mexicana]
   + 20.90815 buy[Huevo_con_pimiento_morron]
   + 0.328 buy[cocktail_de_frutas]
   + 10.73266666666667 buy[atun_a_la_vizcaina]
   + 45.8305 buy[huevos_estrellados_con_tocino]
   + 21.3369 buy[Huevo_con_champiñones]
   + 22.6669 buy[Huevo_con_huitlacoche] + 22.04183333333333 buy[Arroz_rojo]
   + 29.988 buy[Sincronizadas]
   + 1.629 buy[cocktail_kiwi,_platano,_pera_y_guayaba]
   + 33.8044 buy[Quesadillas_con_huitlacoche]
   + 20.90315 buy[Huevo_con_papas]
   + 32.0844 buy[Quesadillas_con_flor_de_calabaza]
   + 6.330314285714286 buy[Pierna_adobada]
   + 19.659025 buy[croquetas_de_papa]
   + 22.97839285714286 buy[Albondigas_en_chipotle]
   + 20.9469 buy[Huevo_con_flor_de_calabaza]
   + 32.4744 buy[Quesadillas_con_champiñones]
   + 29.8825 buy[Huevo_con_chorizo] + 22.95125 buy[tinga_de_res]
   + 12.168 buy[Guacamole] + 13.11974375 buy[Ensalada_verde_con_garbanzos]
   + 24.4 buy[Quesadillas] + 0.1605 buy[pico_de_gallo]
   + 23.70615 buy[Huevo_con_jamon]
   + 7.131571428571428 buy[Espinacas_con_tocino_ahumado]
   + 20.823125 buy[Huevo_con_nopales] + Rggrasa_total = 43
 potasio: 610.395 buy[papaya_con_platano]
   + 148 buy[Quesadillas_con_chorizo]
   + 272.318 buy[ensalada_verde_con_pera]
   + 699.0171874999999 buy[lomo_al_horno]
   + 390.1475 buy[Huevo_con_espinacas]
   + 933.4462500000001 buy[Hamburguesas_de_pollo_y_calabaza]
   + 551.8633333333333 buy[Champiñones_salteados]
   + 363.616 buy[mango_con_papaya] + 382.8225 buy[Huevo_a_la_mexicana]
   + 276.8725 buy[Huevo_con_pimiento_morron] + 350 buy[cocktail_de_frutas]
   + 521.9758333333333 buy[atun_a_la_vizcaina]
   + 496.5 buy[huevos_estrellados_con_tocino]
   + 571.3975 buy[Huevo_con_champiñones]
   + 215.3975 buy[Huevo_con_huitlacoche] + 235.325 buy[Arroz_rojo]
   + 246.4 buy[Sincronizadas]
   + 500.47 buy[cocktail_kiwi,_platano,_pera_y_guayaba]
   + 141.8975 buy[Quesadillas_con_huitlacoche]
   + 548.1225 buy[Huevo_con_papas]
   + 247.8975 buy[Quesadillas_con_flor_de_calabaza]
   + 688.8871428571429 buy[Pierna_adobada] + 929.06 buy[croquetas_de_papa]
   + 695.8582142857142 buy[Albondigas_en_chipotle]
   + 321.3975 buy[Huevo_con_flor_de_calabaza]
   + 497.8975 buy[Quesadillas_con_champiñones]
   + 221.5 buy[Huevo_con_chorizo] + 591.9625 buy[tinga_de_res]
   + 443.88 buy[Guacamole] + 584.2634375 buy[Ensalada_verde_con_garbanzos]
   + 84 buy[Quesadillas] + 237.7 buy[pico_de_gallo]
   + 302.5725 buy[Huevo_con_jamon]
   + 713.345 buy[Espinacas_con_tocino_ahumado]
   + 291.9225 buy[Huevo_con_nopales] >= 2000
 niacina: 0.81145 buy[papaya_con_platano]
   + 2.02 buy[Quesadillas_con_chorizo]
   + 0.37248 buy[ensalada_verde_con_pera] + 10.075546875 buy[lomo_al_horno]
   + 0.31785 buy[Huevo_con_espinacas]
   + 7.5285875 buy[Hamburguesas_de_pollo_y_calabaza]
   + 6.075466666666666 buy[Champiñones_salteados]
   + 0.62416 buy[mango_con_papaya] + 0.547575 buy[Huevo_a_la_mexicana]
   + 0.33375 buy[Huevo_con_pimiento_morron] + 0.772 buy[cocktail_de_frutas]
   + 4.684980833333333 buy[atun_a_la_vizcaina]
   + 6.735 buy[huevos_estrellados_con_tocino]
   + 4.6316 buy[Huevo_con_champiñones] + 0.1716 buy[Huevo_con_huitlacoche]
   + 3.362083333333333 buy[Arroz_rojo] + 4.628 buy[Sincronizadas]
   + 1.1401 buy[cocktail_kiwi,_platano,_pera_y_guayaba]
   + 0.9046 buy[Quesadillas_con_huitlacoche] + 1.1561 buy[Huevo_con_papas]
   + 1.2146 buy[Quesadillas_con_flor_de_calabaza]
   + 11.70625357142857 buy[Pierna_adobada]
   + 2.394825 buy[croquetas_de_papa]
   + 9.317407142857146 buy[Albondigas_en_chipotle]
   + 0.4816 buy[Huevo_con_flor_de_calabaza]
   + 5.3646 buy[Quesadillas_con_champiñones] + 1.287 buy[Huevo_con_chorizo]
   + 8.332875 buy[tinga_de_res] + 1.373 buy[Guacamole]
   + 2.63697375 buy[Ensalada_verde_con_garbanzos] + 0.808 buy[Quesadillas]
   + 0.482225 buy[pico_de_gallo] + 2.9191 buy[Huevo_con_jamon]
   + 2.452364285714286 buy[Espinacas_con_tocino_ahumado]
   + 0.28315 buy[Huevo_con_nopales] >= 20
 calcio: 75.51 buy[papaya_con_platano] + 228 buy[Quesadillas_con_chorizo]
   + 114.714 buy[ensalada_verde_con_pera] + 39.815625 buy[lomo_al_horno]
   + 121.1175 buy[Huevo_con_espinacas]
   + 40.64625 buy[Hamburguesas_de_pollo_y_calabaza]
   + 43.49 buy[Champiñones_salteados] + 68.508 buy[mango_con_papaya]
   + 80.655 buy[Huevo_a_la_mexicana]
   + 73.2175 buy[Huevo_con_pimiento_morron] + 22.35 buy[cocktail_de_frutas]
   + 58.84916666666668 buy[atun_a_la_vizcaina]
   + 69.1 buy[huevos_estrellados_con_tocino]
   + 95.1175 buy[Huevo_con_champiñones]
   + 90.9775 buy[Huevo_con_huitlacoche] + 26.55833333333333 buy[Arroz_rojo]
   + 229.6 buy[Sincronizadas]
   + 47.17 buy[cocktail_kiwi,_platano,_pera_y_guayaba]
   + 240.0775 buy[Quesadillas_con_huitlacoche]
   + 107.4175 buy[Huevo_con_papas]
   + 275.2174999999999 buy[Quesadillas_con_flor_de_calabaza]
   + 30.70428571428572 buy[Pierna_adobada]
   + 300.8425 buy[croquetas_de_papa]
   + 47.38321428571428 buy[Albondigas_en_chipotle]
   + 126.1175 buy[Huevo_con_flor_de_calabaza]
   + 244.2175 buy[Quesadillas_con_champiñones]
   + 78.9 buy[Huevo_con_chorizo] + 28.775 buy[tinga_de_res]
   + 38.31 buy[Guacamole] + 108.5990625 buy[Ensalada_verde_con_garbanzos]
   + 211.6 buy[Quesadillas] + 18.0125 buy[pico_de_gallo]
   + 85.1675 buy[Huevo_con_jamon]
   + 180.795 buy[Espinacas_con_tocino_ahumado]
   + 165.865 buy[Huevo_con_nopales] >= 800
 zinc: 0.47295 buy[papaya_con_platano] + 1.29 buy[Quesadillas_con_chorizo]
   + 0.39824 buy[ensalada_verde_con_pera] + 3.2979375 buy[lomo_al_horno]
   + 1.6788625 buy[Huevo_con_espinacas]
   + 2.6347 buy[Hamburguesas_de_pollo_y_calabaza]
   + 1.268483333333333 buy[Champiñones_salteados]
   + 0.34036 buy[mango_con_papaya] + 1.5008625 buy[Huevo_a_la_mexicana]
   + 1.4228625 buy[Huevo_con_pimiento_morron]
   + 0.1445 buy[cocktail_de_frutas]
   + 0.7546833333333334 buy[atun_a_la_vizcaina]
   + 3.4125 buy[huevos_estrellados_con_tocino]
   + 2.2638625 buy[Huevo_con_champiñones]
   + 1.6448625 buy[Huevo_con_huitlacoche]
   + 0.6234166666666667 buy[Arroz_rojo] + 1.21 buy[Sincronizadas]
   + 0.3502 buy[cocktail_kiwi,_platano,_pera_y_guayaba]
   + 0.7023625000000001 buy[Quesadillas_con_huitlacoche]
   + 1.7428625 buy[Huevo_con_papas]
   + 0.5513625000000001 buy[Quesadillas_con_flor_de_calabaza]
   + 4.220057142857144 buy[Pierna_adobada] + 1.001 buy[croquetas_de_papa]
   + 9.509735714285716 buy[Albondigas_en_chipotle]
   + 1.4938625 buy[Huevo_con_flor_de_calabaza]
   + 1.3213625 buy[Quesadillas_con_champiñones]
   + 2.2325 buy[Huevo_con_chorizo] + 10.39 buy[tinga_de_res]
   + 0.4423 buy[Guacamole] + 1.68663125 buy[Ensalada_verde_con_garbanzos]
   + 0.37 buy[Quesadillas] + 0.191375 buy[pico_de_gallo]
   + 1.9928625 buy[Huevo_con_jamon]
   + 1.576564285714286 buy[Espinacas_con_tocino_ahumado]
   + 1.4748875 buy[Huevo_con_nopales] >= 15
 tiamina: 0.06575 buy[papaya_con_platano]
   + 0.174 buy[Quesadillas_con_chorizo]
   + 0.05012 buy[ensalada_verde_con_pera]
   + 0.8150531249999998 buy[lomo_al_horno]
   + 0.137275 buy[Huevo_con_espinacas]
   + 0.2352875 buy[Hamburguesas_de_pollo_y_calabaza]
   + 0.1237 buy[Champiñones_salteados] + 0.0676 buy[mango_con_papaya]
   + 0.133075 buy[Huevo_a_la_mexicana]
   + 0.124825 buy[Huevo_con_pimiento_morron]
   + 0.1225 buy[cocktail_de_frutas]
   + 0.0791741666666667 buy[atun_a_la_vizcaina]
   + 0.3275 buy[huevos_estrellados_con_tocino]
   + 0.180275 buy[Huevo_con_champiñones]
   + 0.107275 buy[Huevo_con_huitlacoche] + 0.20885 buy[Arroz_rojo]
   + 0.302 buy[Sincronizadas]
   + 0.098 buy[cocktail_kiwi,_platano,_pera_y_guayaba]
   + 0.109775 buy[Quesadillas_con_huitlacoche]
   + 0.123775 buy[Huevo_con_papas]
   + 0.127775 buy[Quesadillas_con_flor_de_calabaza]
   + 0.9065785714285713 buy[Pierna_adobada] + 0.0844 buy[croquetas_de_papa]
   + 0.1794535714285714 buy[Albondigas_en_chipotle]
   + 0.125275 buy[Huevo_con_flor_de_calabaza]
   + 0.182775 buy[Quesadillas_con_champiñones]
   + 0.1715 buy[Huevo_con_chorizo] + 0.159375 buy[tinga_de_res]
   + 0.0946 buy[Guacamole] + 0.158819375 buy[Ensalada_verde_con_garbanzos]
   + 0.09 buy[Quesadillas] + 0.04905 buy[pico_de_gallo]
   + 0.134275 buy[Huevo_con_jamon]
   + 0.1859714285714286 buy[Espinacas_con_tocino_ahumado]
   + 0.1002 buy[Huevo_con_nopales] >= 1.5
 vitamina_c: 80.36 buy[papaya_con_platano]
   + 0.4 buy[Quesadillas_con_chorizo] + 8.552 buy[ensalada_verde_con_pera]
   + 3.7646875 buy[lomo_al_horno] + 5.3275 buy[Huevo_con_espinacas]
   + 10.94375 buy[Hamburguesas_de_pollo_y_calabaza]
   + 8.353333333333334 buy[Champiñones_salteados]
   + 97.688 buy[mango_con_papaya] + 19.83 buy[Huevo_a_la_mexicana]
   + 34.8325 buy[Huevo_con_pimiento_morron] + 85.7 buy[cocktail_de_frutas]
   + 41.13283333333334 buy[atun_a_la_vizcaina]
   + 6.265 buy[Huevo_con_champiñones] + 2.265 buy[Huevo_con_huitlacoche]
   + 15.76833333333333 buy[Arroz_rojo]
   + 150.8 buy[cocktail_kiwi,_platano,_pera_y_guayaba]
   + 2.265 buy[Quesadillas_con_huitlacoche] + 5.6025 buy[Huevo_con_papas]
   + 7.265 buy[Quesadillas_con_flor_de_calabaza]
   + 20.89785714285715 buy[Pierna_adobada] + 11.105 buy[croquetas_de_papa]
   + 19.02035714285714 buy[Albondigas_en_chipotle]
   + 7.265 buy[Huevo_con_flor_de_calabaza]
   + 6.265 buy[Quesadillas_con_champiñones] + 0.4 buy[Huevo_con_chorizo]
   + 14.7625 buy[tinga_de_res] + 33.47 buy[Guacamole]
   + 13.5183125 buy[Ensalada_verde_con_garbanzos]
   + 25.5275 buy[pico_de_gallo] + 1.3525 buy[Huevo_con_jamon]
   + 13.51428571428571 buy[Espinacas_con_tocino_ahumado]
   + 3.53 buy[Huevo_con_nopales] >= 60
 sodio: 7.915 buy[papaya_con_platano] + 1407 buy[Quesadillas_con_chorizo]
   + 181.058 buy[ensalada_verde_con_pera]
   + 330.1640624999999 buy[lomo_al_horno]
   + 303.70375 buy[Huevo_con_espinacas]
   + 341.545 buy[Hamburguesas_de_pollo_y_calabaza]
   + 165.9383333333333 buy[Champiñones_salteados]
   + 5.932 buy[mango_con_papaya] + 285.04125 buy[Huevo_a_la_mexicana]
   + 277.87875 buy[Huevo_con_pimiento_morron]
   + 5.45 buy[cocktail_de_frutas] + 696.6225 buy[atun_a_la_vizcaina]
   + 1541 buy[huevos_estrellados_con_tocino]
   + 279.45375 buy[Huevo_con_champiñones]
   + 278.65975 buy[Huevo_con_huitlacoche]
   + 175.7833333333333 buy[Arroz_rojo] + 855 buy[Sincronizadas]
   + 4.76 buy[cocktail_kiwi,_platano,_pera_y_guayaba]
   + 528.65975 buy[Quesadillas_con_huitlacoche]
   + 288.87875 buy[Huevo_con_papas]
   + 533.45375 buy[Quesadillas_con_flor_de_calabaza]
   + 346.7435714285715 buy[Pierna_adobada] + 580.175 buy[croquetas_de_papa]
   + 596.8557142857143 buy[Albondigas_en_chipotle]
   + 283.45375 buy[Huevo_con_flor_de_calabaza]
   + 529.45375 buy[Quesadillas_con_champiñones]
   + 1157 buy[Huevo_con_chorizo] + 572.0875 buy[tinga_de_res]
   + 207.32 buy[Guacamole] + 205.4275 buy[Ensalada_verde_con_garbanzos]
   + 405 buy[Quesadillas] + 251.175 buy[pico_de_gallo]
   + 472.57875 buy[Huevo_con_jamon]
   + 1171.520714285714 buy[Espinacas_con_tocino_ahumado]
   + 288.63125 buy[Huevo_con_nopales] + Rgsodio = 2500
 fibra_dietetica: 6.167 buy[papaya_con_platano]
   + 1.788 buy[Quesadillas_con_chorizo]
   + 1.566 buy[ensalada_verde_con_pera] + 1.31625 buy[lomo_al_horno]
   + 1.31625 buy[Huevo_con_espinacas]
   + 2.172375 buy[Hamburguesas_de_pollo_y_calabaza]
   + 3.488333333333333 buy[Champiñones_salteados]
   + 5.2236 buy[mango_con_papaya] + 1.06375 buy[Huevo_a_la_mexicana]
   + 0.95625 buy[Huevo_con_pimiento_morron] + 1.43 buy[cocktail_de_frutas]
   + 2.646833333333333 buy[atun_a_la_vizcaina]
   + 2.61625 buy[Huevo_con_champiñones]
   + 0.41625 buy[Huevo_con_huitlacoche] + 2.345 buy[Arroz_rojo]
   + 1.24 buy[Sincronizadas]
   + 3.576 buy[cocktail_kiwi,_platano,_pera_y_guayaba]
   + 2.20425 buy[Quesadillas_con_huitlacoche]
   + 3.22125 buy[Huevo_con_papas]
   + 3.10425 buy[Quesadillas_con_flor_de_calabaza]
   + 0.9902142857142858 buy[Pierna_adobada] + 6.4425 buy[croquetas_de_papa]
   + 1.06775 buy[Albondigas_en_chipotle]
   + 1.31625 buy[Huevo_con_flor_de_calabaza]
   + 4.40425 buy[Quesadillas_con_champiñones] + 1.225 buy[tinga_de_res]
   + 3.648 buy[Guacamole]
   + 8.923406249999999 buy[Ensalada_verde_con_garbanzos]
   + 1.788 buy[Quesadillas] + 1.0475 buy[pico_de_gallo]
   + 0.41625 buy[Huevo_con_jamon]
   + 3.259714285714285 buy[Espinacas_con_tocino_ahumado]
   + 1.307 buy[Huevo_con_nopales] + Rgfibra_dietetica = 24
 folato: 54.12 buy[papaya_con_platano] + 47.36 buy[ensalada_verde_con_pera]
   + 10.3265625 buy[lomo_al_horno] + 113.525 buy[Huevo_con_espinacas]
   + 32.14 buy[Hamburguesas_de_pollo_y_calabaza]
   + 29.03333333333333 buy[Champiñones_salteados]
   + 43.496 buy[mango_con_papaya] + 69.425 buy[Huevo_a_la_mexicana]
   + 65.975 buy[Huevo_con_pimiento_morron] + 44.5 buy[cocktail_de_frutas]
   + 36.18 buy[atun_a_la_vizcaina]
   + 56.2 buy[huevos_estrellados_con_tocino]
   + 76.775 buy[Huevo_con_champiñones] + 58.775 buy[Huevo_con_huitlacoche]
   + 73.36666666666667 buy[Arroz_rojo] + 68.8 buy[Sincronizadas]
   + 30.26 buy[cocktail_kiwi,_platano,_pera_y_guayaba]
   + 3.775 buy[Quesadillas_con_huitlacoche] + 67.275 buy[Huevo_con_papas]
   + 44.775 buy[Quesadillas_con_flor_de_calabaza]
   + 11.64428571428572 buy[Pierna_adobada] + 28.8825 buy[croquetas_de_papa]
   + 43.73357142857143 buy[Albondigas_en_chipotle]
   + 99.775 buy[Huevo_con_flor_de_calabaza]
   + 21.775 buy[Quesadillas_con_champiñones] + 55 buy[Huevo_con_chorizo]
   + 24.625 buy[tinga_de_res] + 48 buy[Guacamole]
   + 143.738125 buy[Ensalada_verde_con_garbanzos]
   + 16.025 buy[pico_de_gallo] + 60.375 buy[Huevo_con_jamon]
   + 191.1057142857143 buy[Espinacas_con_tocino_ahumado]
   + 57.485 buy[Huevo_con_nopales] >= 0
 acido_folico: 12 buy[Quesadillas_con_chorizo]
   + 3.84 buy[ensalada_verde_con_pera] + 0.075 buy[Huevo_con_espinacas]
   + 0.075 buy[Hamburguesas_de_pollo_y_calabaza]
   + 0.1 buy[Champiñones_salteados] + 0.0625 buy[atun_a_la_vizcaina]
   + 0.075 buy[Huevo_con_champiñones] + 0.075 buy[Huevo_con_huitlacoche]
   + 28.025 buy[Arroz_rojo] + 48.8 buy[Sincronizadas]
   + 12.075 buy[Quesadillas_con_huitlacoche]
   + 12.075 buy[Quesadillas_con_flor_de_calabaza]
   + 0.0214285714285714 buy[Pierna_adobada]
   + 7.858571428571429 buy[Albondigas_en_chipotle]
   + 0.075 buy[Huevo_con_flor_de_calabaza]
   + 12.075 buy[Quesadillas_con_champiñones] + 0.0375 buy[tinga_de_res]
   + 6 buy[Guacamole] + 28.125 buy[Ensalada_verde_con_garbanzos]
   + 12 buy[Quesadillas] + 0.075 buy[Huevo_con_nopales] >= 200
 ac_graso_mono: 0.21775 buy[papaya_con_platano]
   + 5.56 buy[Quesadillas_con_chorizo]
   + 0.53042 buy[ensalada_verde_con_pera] + 4.190146875 buy[lomo_al_horno]
   + 6.860775 buy[Huevo_con_espinacas]
   + 8.44073 buy[Hamburguesas_de_pollo_y_calabaza]
   + 2.353366666666667 buy[Champiñones_salteados]
   + 0.2392 buy[mango_con_papaya] + 6.8717 buy[Huevo_a_la_mexicana]
   + 6.862625 buy[Huevo_con_pimiento_morron] + 0.07 buy[cocktail_de_frutas]
   + 6.706385833333334 buy[atun_a_la_vizcaina]
   + 17.9595 buy[huevos_estrellados_con_tocino]
   + 6.865025 buy[Huevo_con_champiñones]
   + 6.857025 buy[Huevo_con_huitlacoche]
   + 1.795766666666667 buy[Arroz_rojo] + 4.156 buy[Sincronizadas]
   + 0.1399 buy[cocktail_kiwi,_platano,_pera_y_guayaba]
   + 3.517025 buy[Quesadillas_con_huitlacoche]
   + 6.856775 buy[Huevo_con_papas]
   + 3.527025 buy[Quesadillas_con_flor_de_calabaza]
   + 1.982489285714286 buy[Pierna_adobada] + 3.82805 buy[croquetas_de_papa]
   + 7.769289285714286 buy[Albondigas_en_chipotle]
   + 6.867025 buy[Huevo_con_flor_de_calabaza]
   + 3.525025 buy[Quesadillas_con_champiñones]
   + 10.6475 buy[Huevo_con_chorizo] + 8.945625000000002 buy[tinga_de_res]
   + 8.3652 buy[Guacamole]
   + 5.540940624999999 buy[Ensalada_verde_con_garbanzos]
   + 1.76 buy[Quesadillas] + 0.021675 buy[pico_de_gallo]
   + 7.856774999999999 buy[Huevo_con_jamon]
   + 3.018735714285714 buy[Espinacas_con_tocino_ahumado]
   + 6.853625 buy[Huevo_con_nopales] >= 0
 vitamina_b6: 0.2192 buy[papaya_con_platano]
   + 0.158 buy[Quesadillas_con_chorizo]
   + 0.10798 buy[ensalada_verde_con_pera]
   + 0.7092937500000001 buy[lomo_al_horno]
   + 0.2731 buy[Huevo_con_espinacas]
   + 0.6340975 buy[Hamburguesas_de_pollo_y_calabaza]
   + 0.1708 buy[Champiñones_salteados] + 0.12936 buy[mango_con_papaya]
   + 0.25255 buy[Huevo_a_la_mexicana]
   + 0.28795 buy[Huevo_con_pimiento_morron] + 0.11 buy[cocktail_de_frutas]
   + 0.3472775 buy[atun_a_la_vizcaina]
   + 0.36 buy[huevos_estrellados_con_tocino]
   + 0.2781 buy[Huevo_con_champiñones] + 0.1831 buy[Huevo_con_huitlacoche]
   + 0.14595 buy[Arroz_rojo] + 0.218 buy[Sincronizadas]
   + 0.1918 buy[cocktail_kiwi,_platano,_pera_y_guayaba]
   + 0.1031 buy[Quesadillas_con_huitlacoche] + 0.3871 buy[Huevo_con_papas]
   + 0.1531 buy[Quesadillas_con_flor_de_calabaza]
   + 0.7689035714285715 buy[Pierna_adobada] + 0.4622 buy[croquetas_de_papa]
   + 0.6659642857142856 buy[Albondigas_en_chipotle]
   + 0.2331 buy[Huevo_con_flor_de_calabaza]
   + 0.1981 buy[Quesadillas_con_champiñones] + 0.238 buy[Huevo_con_chorizo]
   + 0.708875 buy[tinga_de_res] + 0.2152 buy[Guacamole]
   + 0.15470375 buy[Ensalada_verde_con_garbanzos] + 0.07 buy[Quesadillas]
   + 0.10795 buy[pico_de_gallo] + 0.3111 buy[Huevo_con_jamon]
   + 0.3815428571428571 buy[Espinacas_con_tocino_ahumado]
   + 0.193225 buy[Huevo_con_nopales] >= 2
 energia: 219.59 buy[papaya_con_platano]
   + 491.8 buy[Quesadillas_con_chorizo]
   + 109.2 buy[ensalada_verde_con_pera] + 291.01875 buy[lomo_al_horno]
   + 283.6625 buy[Huevo_con_espinacas]
   + 300.92875 buy[Hamburguesas_de_pollo_y_calabaza]
   + 149.2166666666667 buy[Champiñones_salteados]
   + 161.872 buy[mango_con_papaya] + 290.65 buy[Huevo_a_la_mexicana]
   + 284.2875 buy[Huevo_con_pimiento_morron]
   + 80.85 buy[cocktail_de_frutas]
   + 219.5316666666666 buy[atun_a_la_vizcaina]
   + 584.65 buy[huevos_estrellados_con_tocino]
   + 305.6625 buy[Huevo_con_champiñones]
   + 277.6625 buy[Huevo_con_huitlacoche] + 299.075 buy[Arroz_rojo]
   + 482.6 buy[Sincronizadas]
   + 126.51 buy[cocktail_kiwi,_platano,_pera_y_guayaba]
   + 464.5125000000001 buy[Quesadillas_con_huitlacoche]
   + 337.9875 buy[Huevo_con_papas]
   + 479.5125000000001 buy[Quesadillas_con_flor_de_calabaza]
   + 274.4121428571428 buy[Pierna_adobada] + 359.89 buy[croquetas_de_papa]
   + 419.6453571428571 buy[Albondigas_en_chipotle]
   + 292.6625 buy[Huevo_con_flor_de_calabaza]
   + 492.5125000000001 buy[Quesadillas_con_champiñones]
   + 371.25 buy[Huevo_con_chorizo] + 390.4 buy[tinga_de_res]
   + 149.63 buy[Guacamole] + 258.5159375 buy[Ensalada_verde_con_garbanzos]
   + 380.6 buy[Quesadillas] + 33.0875 buy[pico_de_gallo]
   + 330.4875 buy[Huevo_con_jamon]
   + 122.235 buy[Espinacas_con_tocino_ahumado]
   + 273.165 buy[Huevo_con_nopales] + Rgenergia = 2700
 ac_graso_sat: 0.366 buy[papaya_con_platano]
   + 5.73 buy[Quesadillas_con_chorizo]
   + 0.93326 buy[ensalada_verde_con_pera]
   + 3.414175000000001 buy[lomo_al_horno]
   + 5.19495 buy[Huevo_con_espinacas]
   + 4.2477825 buy[Hamburguesas_de_pollo_y_calabaza]
   + 1.537933333333333 buy[Champiñones_salteados]
   + 0.2788 buy[mango_con_papaya] + 5.1932 buy[Huevo_a_la_mexicana]
   + 5.19075 buy[Huevo_con_pimiento_morron] + 0.053 buy[cocktail_de_frutas]
   + 1.7474825 buy[atun_a_la_vizcaina]
   + 13.4115 buy[huevos_estrellados_con_tocino]
   + 5.24095 buy[Huevo_con_champiñones]
   + 5.17995 buy[Huevo_con_huitlacoche] + 1.133633333333334 buy[Arroz_rojo]
   + 4.414 buy[Sincronizadas]
   + 0.2374 buy[cocktail_kiwi,_platano,_pera_y_guayaba]
   + 3.98245 buy[Quesadillas_con_huitlacoche] + 5.2032 buy[Huevo_con_papas]
   + 4.02345 buy[Quesadillas_con_flor_de_calabaza]
   + 1.473910714285714 buy[Pierna_adobada]
   + 8.323275000000001 buy[croquetas_de_papa]
   + 6.937507142857144 buy[Albondigas_en_chipotle]
   + 5.22095 buy[Huevo_con_flor_de_calabaza]
   + 4.04345 buy[Quesadillas_con_champiñones]
   + 8.0075 buy[Huevo_con_chorizo] + 6.788 buy[tinga_de_res]
   + 1.7218 buy[Guacamole] + 1.68583375 buy[Ensalada_verde_con_garbanzos]
   + 2.89 buy[Quesadillas] + 0.02325 buy[pico_de_gallo]
   + 5.9857 buy[Huevo_con_jamon]
   + 2.282992857142858 buy[Espinacas_con_tocino_ahumado]
   + 5.18 buy[Huevo_con_nopales] >= 0
 vitamina_b12: 0.624 buy[Quesadillas_con_chorizo]
   + 0.1984 buy[ensalada_verde_con_pera] + 1.0625 buy[lomo_al_horno]
   + 1.3875 buy[Huevo_con_espinacas]
   + 0.6765 buy[Hamburguesas_de_pollo_y_calabaza]
   + 1.3875 buy[Huevo_a_la_mexicana]
   + 1.3875 buy[Huevo_con_pimiento_morron] + 0.78 buy[atun_a_la_vizcaina]
   + 2.1255 buy[huevos_estrellados_con_tocino]
   + 1.3875 buy[Huevo_con_champiñones] + 1.3875 buy[Huevo_con_huitlacoche]
   + 0.716 buy[Sincronizadas] + 0.62 buy[Quesadillas_con_huitlacoche]
   + 1.3875 buy[Huevo_con_papas]
   + 0.62 buy[Quesadillas_con_flor_de_calabaza]
   + 0.8285714285714285 buy[Pierna_adobada] + 0.1927 buy[croquetas_de_papa]
   + 3.710571428571429 buy[Albondigas_en_chipotle]
   + 1.3875 buy[Huevo_con_flor_de_calabaza]
   + 0.62 buy[Quesadillas_con_champiñones] + 1.3915 buy[Huevo_con_chorizo]
   + 3.875 buy[tinga_de_res] + 0.62 buy[Quesadillas]
   + 1.4835 buy[Huevo_con_jamon]
   + 0.1994357142857142 buy[Espinacas_con_tocino_ahumado]
   + 1.3875 buy[Huevo_con_nopales] >= 2
 ac_graso_poli: 1.8235 buy[papaya_con_platano]
   + 1.42 buy[Quesadillas_con_chorizo]
   + 0.12236 buy[ensalada_verde_con_pera] + 2.099728125 buy[lomo_al_horno]
   + 6.173075 buy[Huevo_con_espinacas]
   + 2.946544999999999 buy[Hamburguesas_de_pollo_y_calabaza]
   + 6.069766666666666 buy[Champiñones_salteados]
   + 1.4638 buy[mango_con_papaya] + 6.17315 buy[Huevo_a_la_mexicana]
   + 6.173775 buy[Huevo_con_pimiento_morron]
   + 0.076 buy[cocktail_de_frutas]
   + 1.735963333333333 buy[atun_a_la_vizcaina]
   + 8.955 buy[huevos_estrellados_con_tocino]
   + 6.314825 buy[Huevo_con_champiñones]
   + 6.131825 buy[Huevo_con_huitlacoche]
   + 4.437733333333334 buy[Arroz_rojo] + 1.428 buy[Sincronizadas]
   + 0.9232 buy[cocktail_kiwi,_platano,_pera_y_guayaba]
   + 4.789325 buy[Quesadillas_con_huitlacoche]
   + 6.160075 buy[Huevo_con_papas]
   + 4.793324999999999 buy[Quesadillas_con_flor_de_calabaza]
   + 1.981817857142857 buy[Pierna_adobada] + 1.99965 buy[croquetas_de_papa]
   + 5.873875000000002 buy[Albondigas_en_chipotle]
   + 6.135825 buy[Huevo_con_flor_de_calabaza]
   + 4.972325 buy[Quesadillas_con_champiñones]
   + 7.105 buy[Huevo_con_chorizo] + 4.073625000000001 buy[tinga_de_res]
   + 1.4754 buy[Guacamole] + 4.912110625 buy[Ensalada_verde_con_garbanzos]
   + 0.42 buy[Quesadillas] + 0.065325 buy[pico_de_gallo]
   + 6.822075 buy[Huevo_con_jamon]
   + 0.9205285714285715 buy[Espinacas_con_tocino_ahumado]
   + 6.136425 buy[Huevo_con_nopales] >= 0
 ceniza: 1.7875 buy[papaya_con_platano] + 6 buy[Quesadillas_con_chorizo]
   + 2.08166 buy[ensalada_verde_con_pera] + 2.971421875 buy[lomo_al_horno]
   + 2.49645 buy[Huevo_con_espinacas]
   + 3.0619875 buy[Hamburguesas_de_pollo_y_calabaza]
   + 2.1436 buy[Champiñones_salteados] + 1.165 buy[mango_con_papaya]
   + 2.2427 buy[Huevo_a_la_mexicana]
   + 1.9222 buy[Huevo_con_pimiento_morron] + 0.762 buy[cocktail_de_frutas]
   + 3.371091666666667 buy[atun_a_la_vizcaina]
   + 5.808 buy[huevos_estrellados_con_tocino]
   + 2.9577 buy[Huevo_con_champiñones] + 1.9677 buy[Huevo_con_huitlacoche]
   + 3.2155 buy[Arroz_rojo] + 5.756 buy[Sincronizadas]
   + 0.9096 buy[cocktail_kiwi,_platano,_pera_y_guayaba]
   + 4.9377 buy[Quesadillas_con_huitlacoche] + 3.5167 buy[Huevo_con_papas]
   + 5.2677 buy[Quesadillas_con_flor_de_calabaza]
   + 2.849035714285714 buy[Pierna_adobada]
   + 6.407425000000001 buy[croquetas_de_papa]
   + 3.436889285714285 buy[Albondigas_en_chipotle]
   + 2.2977 buy[Huevo_con_flor_de_calabaza]
   + 5.9277 buy[Quesadillas_con_champiñones] + 3.03 buy[Huevo_con_chorizo]
   + 3.1275 buy[tinga_de_res] + 1.807 buy[Guacamole]
   + 2.215240625 buy[Ensalada_verde_con_garbanzos] + 4.32 buy[Quesadillas]
   + 1.22625 buy[pico_de_gallo] + 2.5827 buy[Huevo_con_jamon]
   + 5.414892857142858 buy[Espinacas_con_tocino_ahumado]
   + 2.32075 buy[Huevo_con_nopales] >= 0
 proteina: 2.714 buy[papaya_con_platano]
   + 26.48 buy[Quesadillas_con_chorizo]
   + 7.0015 buy[ensalada_verde_con_pera]
   + 35.59459374999999 buy[lomo_al_horno]
   + 17.338625 buy[Huevo_con_espinacas]
   + 27.5154375 buy[Hamburguesas_de_pollo_y_calabaza]
   + 3.8765 buy[Champiñones_salteados] + 1.9212 buy[mango_con_papaya]
   + 16.989875 buy[Huevo_a_la_mexicana]
   + 16.506375 buy[Huevo_con_pimiento_morron]
   + 1.213 buy[cocktail_de_frutas] + 18.23035 buy[atun_a_la_vizcaina]
   + 37.949 buy[huevos_estrellados_con_tocino]
   + 18.632375 buy[Huevo_con_champiñones]
   + 28.462375 buy[Huevo_con_huitlacoche]
   + 3.510166666666666 buy[Arroz_rojo] + 28.796 buy[Sincronizadas]
   + 1.9486 buy[cocktail_kiwi,_platano,_pera_y_guayaba]
   + 32.897375 buy[Quesadillas_con_huitlacoche]
   + 18.523375 buy[Huevo_con_papas]
   + 21.987375 buy[Quesadillas_con_flor_de_calabaza]
   + 45.80405 buy[Pierna_adobada] + 13.864375 buy[croquetas_de_papa]
   + 40.75316785714286 buy[Albondigas_en_chipotle]
   + 17.552375 buy[Huevo_con_flor_de_calabaza]
   + 23.067375 buy[Quesadillas_con_champiñones]
   + 22.045 buy[Huevo_con_chorizo] + 38.34125 buy[tinga_de_res]
   + 2.089 buy[Guacamole] + 10.862759375 buy[Ensalada_verde_con_garbanzos]
   + 20.16 buy[Quesadillas] + 1.285 buy[pico_de_gallo]
   + 23.572375 buy[Huevo_con_jamon]
   + 9.999757142857142 buy[Espinacas_con_tocino_ahumado]
   + 16.695 buy[Huevo_con_nopales] + Rgproteina = 56
Bounds
 Rgcolesterol <= 300
 Rggrasa_total <= 15
 Rgsodio <= 2500
 Rgfibra_dietetica <= 6
 Rgenergia <= 900
 Rgproteina <= 10
End
